************************************************************************
file with basedata            : mm56_.bas
initial value random generator: 2083613613
************************************************************************
projects                      :  1
jobs (incl. supersource/sink ):  12
horizon                       :  84
RESOURCES
  - renewable                 :  2   R
  - nonrenewable              :  2   N
  - doubly constrained        :  0   D
************************************************************************
PROJECT INFORMATION:
pronr.  #jobs rel.date duedate tardcost  MPM-Time
    1     10      0       15        3       15
************************************************************************
PRECEDENCE RELATIONS:
jobnr.    #modes  #successors   successors
   1        1          3           2   3   4
   2        3          1           5
   3        3          2           8   9
   4        3          2           6   7
   5        3          1          11
   6        3          2           8   9
   7        3          3           8   9  10
   8        3          1          11
   9        3          1          12
  10        3          1          12
  11        3          1          12
  12        1          0        
************************************************************************
REQUESTS/DURATIONS:
jobnr. mode duration  R 1  R 2  N 1  N 2
------------------------------------------------------------------------
  1      1     0       0    0    0    0
  2      1     5       5    5    8    5
         2     5       6    5    7    6
         3    10       4    5    5    1
  3      1     1       7    9    7    7
         2     2       7    4    6    7
         3     7       6    3    6    3
  4      1     1       3    4    9    6
         2     6       2    3    7    6
         3     7       2    3    1    5
  5      1     1       6    5    6    7
         2     6       5    5    5    6
         3     7       5    5    4    5
  6      1     1      10    4    7    3
         2     5       8    2    5    2
         3    10       3    2    1    2
  7      1     7       9   10    5    8
         2     9       8    7    4    8
         3    10       7    4    3    5
  8      1     3       4    1    5   10
         2     4       4    1    5    9
         3     9       4    1    5    7
  9      1     2       9    8    7    7
         2     6       8    8    7    5
         3     9       6    8    5    3
 10      1     7       4    8    2    8
         2     9       3    8    2    6
         3    10       3    7    2    4
 11      1     2       7    6    3    9
         2     3       7    5    3    6
         3     5       6    5    1    6
 12      1     0       0    0    0    0
************************************************************************
RESOURCEAVAILABILITIES:
  R 1  R 2  N 1  N 2
   20   16   59   71
************************************************************************
MAXIMAL LAGS:
from  to  type  delay
    1   12   ES      0
    1    2   ES      0
    2   12   ES      0
    1    3   ES      0
    3   12   ES      0
    1    4   ES      0
    4   12   ES      0
    1    5   ES      0
    5   12   ES      0
    1    6   ES      0
    6   12   ES      0
    1    7   ES      0
    7   12   ES      0
    1    8   ES      0
    8   12   ES      0
    1    9   ES      0
    9   12   ES      0
    1   10   ES      0
   10   12   ES      0
    1   11   ES      0
   11   12   ES      0
    1   12   ES      0
    2    5   SS      3
    2    5   SE     -6
    2    5   ES     -9
    2    5   EE     -7
    3    8   SS      0
    3    8   SE      5
    3    8   ES      8
    3    8   EE      8
    3    9   SS      5
    3    9   SE    -10
    3    9   ES     -8
    3    9   EE      9
    4    6   SS     -8
    4    6   SE      4
    4    6   ES     -8
    4    6   EE     12
    4    7   SS    -10
    4    7   SE      3
    4    7   ES      4
    4    7   EE    -10
    5   11   SS      6
    5   11   SE     -7
    5   11   ES     -5
    5   11   EE      8
    6    8   SS     12
    6    8   SE      1
    6    8   ES      8
    6    8   EE     -1
    6    9   SS     -5
    6    9   SE     -4
    6    9   ES      1
    6    9   EE    -11
    7    8   SS     12
    7    8   SE      1
    7    8   ES    -11
    7    8   EE     -2
    7    9   SS     12
    7    9   SE      0
    7    9   ES    -12
    7    9   EE     -6
    7   10   SS      9
    7   10   SE     11
    7   10   ES     -1
    7   10   EE      0
    8   11   SS      2
    8   11   SE      7
    8   11   ES     -5
    8   11   EE     11
************************************************************************
